
Gurobi 12.0.1 (linux64) logging started Sat Feb 22 13:32:59 2025


Gurobi 12.0.1 (linux64) logging started Sat Feb 22 13:32:59 2025


Gurobi 12.0.1 (linux64) logging started Sat Feb 22 13:33:00 2025


Gurobi 12.0.1 (linux64) logging started Sat Feb 22 13:33:00 2025


Gurobi 12.0.1 (linux64) logging started Sat Feb 22 13:33:01 2025


Gurobi 12.0.1 (linux64) logging started Sat Feb 22 13:33:02 2025


Gurobi 12.0.1 (linux64) logging started Sat Feb 22 13:33:02 2025


Gurobi 12.0.1 (linux64) logging started Sat Feb 22 13:33:03 2025


Gurobi 12.0.1 (linux64) logging started Sat Feb 22 13:33:04 2025


Gurobi 12.0.1 (linux64) logging started Sat Feb 22 13:33:04 2025


Gurobi 12.0.1 (linux64) logging started Sat Feb 22 13:33:06 2025


Gurobi 12.0.1 (linux64) logging started Sat Feb 22 13:33:06 2025


Gurobi 12.0.1 (linux64) logging started Sat Feb 22 13:33:07 2025


Gurobi 12.0.1 (linux64) logging started Sat Feb 22 13:33:08 2025


Gurobi 12.0.1 (linux64) logging started Sat Feb 22 13:36:16 2025


Gurobi 12.0.1 (linux64) logging started Sat Feb 22 13:36:16 2025


Gurobi 12.0.1 (linux64) logging started Sat Feb 22 13:36:17 2025


Gurobi 12.0.1 (linux64) logging started Sat Feb 22 13:36:17 2025


Gurobi 12.0.1 (linux64) logging started Sat Feb 22 13:36:18 2025


Gurobi 12.0.1 (linux64) logging started Sat Feb 22 13:36:19 2025


Gurobi 12.0.1 (linux64) logging started Sat Feb 22 13:36:31 2025


Gurobi 12.0.1 (linux64) logging started Sat Feb 22 13:37:25 2025


Gurobi 12.0.1 (linux64) logging started Sat Feb 22 13:40:01 2025


Gurobi 12.0.1 (linux64) logging started Sat Feb 22 13:40:11 2025


Gurobi 12.0.1 (linux64) logging started Sat Feb 22 13:41:03 2025


Gurobi 12.0.1 (linux64) logging started Sat Feb 22 13:41:27 2025


Gurobi 12.0.1 (linux64) logging started Sat Feb 22 13:41:38 2025


Gurobi 12.0.1 (linux64) logging started Sat Feb 22 13:41:54 2025


Gurobi 12.0.1 (linux64) logging started Sat Feb 22 13:42:58 2025


Gurobi 12.0.1 (linux64) logging started Sat Feb 22 13:43:23 2025


Gurobi 12.0.1 (linux64) logging started Sat Feb 22 13:43:39 2025


Gurobi 12.0.1 (linux64) logging started Sat Feb 22 13:44:12 2025


Gurobi 12.0.1 (linux64) logging started Sat Feb 22 13:44:47 2025


Gurobi 12.0.1 (linux64) logging started Sat Feb 22 13:46:02 2025


Gurobi 12.0.1 (linux64) logging started Sat Feb 22 13:46:25 2025


Gurobi 12.0.1 (linux64) logging started Sat Feb 22 13:46:29 2025


Gurobi 12.0.1 (linux64) logging started Sat Feb 22 13:46:30 2025


Gurobi 12.0.1 (linux64) logging started Sat Feb 22 13:46:31 2025


Gurobi 12.0.1 (linux64) logging started Sat Feb 22 13:46:32 2025


Gurobi 12.0.1 (linux64) logging started Sat Feb 22 13:46:33 2025


Gurobi 12.0.1 (linux64) logging started Sat Feb 22 13:46:33 2025


Gurobi 12.0.1 (linux64) logging started Sat Feb 22 13:46:33 2025


Gurobi 12.0.1 (linux64) logging started Sat Feb 22 13:46:34 2025


Gurobi 12.0.1 (linux64) logging started Sat Feb 22 13:46:35 2025


Gurobi 12.0.1 (linux64) logging started Sat Feb 22 13:46:35 2025


Gurobi 12.0.1 (linux64) logging started Sat Feb 22 13:46:36 2025


Gurobi 12.0.1 (linux64) logging started Sat Feb 22 13:46:37 2025


Gurobi 12.0.1 (linux64) logging started Sat Feb 22 13:46:38 2025


Gurobi 12.0.1 (linux64) logging started Sat Feb 22 13:46:38 2025


Gurobi 12.0.1 (linux64) logging started Sat Feb 22 13:46:39 2025


Gurobi 12.0.1 (linux64) logging started Sat Feb 22 13:46:40 2025


Gurobi 12.0.1 (linux64) logging started Sat Feb 22 13:46:41 2025


Gurobi 12.0.1 (linux64) logging started Sat Feb 22 13:46:41 2025


Gurobi 12.0.1 (linux64) logging started Sat Feb 22 13:46:42 2025


Gurobi 12.0.1 (linux64) logging started Sat Feb 22 13:46:42 2025


Gurobi 12.0.1 (linux64) logging started Sat Feb 22 13:46:43 2025


Gurobi 12.0.1 (linux64) logging started Sat Feb 22 13:46:44 2025


Gurobi 12.0.1 (linux64) logging started Sat Feb 22 13:46:44 2025


Gurobi 12.0.1 (linux64) logging started Sat Feb 22 13:46:45 2025


Gurobi 12.0.1 (linux64) logging started Sat Feb 22 13:46:46 2025


Gurobi 12.0.1 (linux64) logging started Sat Feb 22 13:46:46 2025


Gurobi 12.0.1 (linux64) logging started Sat Feb 22 13:46:47 2025


Gurobi 12.0.1 (linux64) logging started Sat Feb 22 13:46:47 2025


Gurobi 12.0.1 (linux64) logging started Sat Feb 22 13:46:48 2025


Gurobi 12.0.1 (linux64) logging started Sat Feb 22 13:46:49 2025


Gurobi 12.0.1 (linux64) logging started Sat Feb 22 13:46:49 2025


Gurobi 12.0.1 (linux64) logging started Sat Feb 22 13:46:50 2025


Gurobi 12.0.1 (linux64) logging started Sat Feb 22 13:46:51 2025


Gurobi 12.0.1 (linux64) logging started Sat Feb 22 13:46:51 2025


Gurobi 12.0.1 (linux64) logging started Sat Feb 22 13:46:52 2025


Gurobi 12.0.1 (linux64) logging started Sat Feb 22 13:46:53 2025


Gurobi 12.0.1 (linux64) logging started Sat Feb 22 13:46:53 2025


Gurobi 12.0.1 (linux64) logging started Sat Feb 22 13:46:54 2025


Gurobi 12.0.1 (linux64) logging started Sat Feb 22 13:46:55 2025


Gurobi 12.0.1 (linux64) logging started Sat Feb 22 13:46:56 2025


Gurobi 12.0.1 (linux64) logging started Sat Feb 22 13:46:56 2025


Gurobi 12.0.1 (linux64) logging started Sat Feb 22 13:46:57 2025


Gurobi 12.0.1 (linux64) logging started Sat Feb 22 13:46:58 2025


Gurobi 12.0.1 (linux64) logging started Sat Feb 22 13:46:59 2025


Gurobi 12.0.1 (linux64) logging started Sat Feb 22 13:47:00 2025


Gurobi 12.0.1 (linux64) logging started Sat Feb 22 13:47:01 2025


Gurobi 12.0.1 (linux64) logging started Sat Feb 22 13:47:05 2025


Gurobi 12.0.1 (linux64) logging started Sat Feb 22 13:47:05 2025


Gurobi 12.0.1 (linux64) logging started Sat Feb 22 13:47:05 2025


Gurobi 12.0.1 (linux64) logging started Sat Feb 22 13:47:06 2025


Gurobi 12.0.1 (linux64) logging started Sat Feb 22 13:47:07 2025


Gurobi 12.0.1 (linux64) logging started Sat Feb 22 13:47:08 2025


Gurobi 12.0.1 (linux64) logging started Sat Feb 22 13:47:08 2025


Gurobi 12.0.1 (linux64) logging started Sat Feb 22 13:47:09 2025


Gurobi 12.0.1 (linux64) logging started Sat Feb 22 13:47:09 2025


Gurobi 12.0.1 (linux64) logging started Sat Feb 22 13:47:10 2025


Gurobi 12.0.1 (linux64) logging started Sat Feb 22 13:47:11 2025


Gurobi 12.0.1 (linux64) logging started Sat Feb 22 13:47:12 2025


Gurobi 12.0.1 (linux64) logging started Sat Feb 22 13:47:13 2025


Gurobi 12.0.1 (linux64) logging started Sat Feb 22 13:47:14 2025


Gurobi 12.0.1 (linux64) logging started Sat Feb 22 13:47:14 2025


Gurobi 12.0.1 (linux64) logging started Sat Feb 22 13:47:15 2025


Gurobi 12.0.1 (linux64) logging started Sat Feb 22 13:47:16 2025


Gurobi 12.0.1 (linux64) logging started Sat Feb 22 13:47:17 2025


Gurobi 12.0.1 (linux64) logging started Sat Feb 22 13:47:17 2025


Gurobi 12.0.1 (linux64) logging started Sat Feb 22 13:47:18 2025


Gurobi 12.0.1 (linux64) logging started Sat Feb 22 13:47:18 2025


Gurobi 12.0.1 (linux64) logging started Sat Feb 22 13:47:19 2025


Gurobi 12.0.1 (linux64) logging started Sat Feb 22 13:47:20 2025


Gurobi 12.0.1 (linux64) logging started Sat Feb 22 13:47:21 2025


Gurobi 12.0.1 (linux64) logging started Sat Feb 22 13:47:21 2025


Gurobi 12.0.1 (linux64) logging started Sat Feb 22 13:47:22 2025


Gurobi 12.0.1 (linux64) logging started Sat Feb 22 13:47:23 2025


Gurobi 12.0.1 (linux64) logging started Sat Feb 22 13:47:24 2025


Gurobi 12.0.1 (linux64) logging started Sat Feb 22 13:47:24 2025


Gurobi 12.0.1 (linux64) logging started Sat Feb 22 13:47:25 2025


Gurobi 12.0.1 (linux64) logging started Sat Feb 22 13:47:26 2025


Gurobi 12.0.1 (linux64) logging started Sat Feb 22 13:47:26 2025


Gurobi 12.0.1 (linux64) logging started Sat Feb 22 13:47:27 2025


Gurobi 12.0.1 (linux64) logging started Sat Feb 22 13:47:28 2025


Gurobi 12.0.1 (linux64) logging started Sat Feb 22 13:47:29 2025


Gurobi 12.0.1 (linux64) logging started Sat Feb 22 13:47:29 2025


Gurobi 12.0.1 (linux64) logging started Sat Feb 22 13:47:30 2025


Gurobi 12.0.1 (linux64) logging started Sat Feb 22 13:47:31 2025


Gurobi 12.0.1 (linux64) logging started Sat Feb 22 13:47:31 2025


Gurobi 12.0.1 (linux64) logging started Sat Feb 22 13:47:32 2025


Gurobi 12.0.1 (linux64) logging started Sat Feb 22 13:47:33 2025


Gurobi 12.0.1 (linux64) logging started Sat Feb 22 13:47:33 2025


Gurobi 12.0.1 (linux64) logging started Sat Feb 22 13:47:34 2025


Gurobi 12.0.1 (linux64) logging started Sat Feb 22 13:47:35 2025


Gurobi 12.0.1 (linux64) logging started Sat Feb 22 13:47:35 2025


Gurobi 12.0.1 (linux64) logging started Sat Feb 22 13:47:36 2025


Gurobi 12.0.1 (linux64) logging started Sat Feb 22 13:47:40 2025


Gurobi 12.0.1 (linux64) logging started Sat Feb 22 13:47:41 2025


Gurobi 12.0.1 (linux64) logging started Sat Feb 22 13:47:42 2025


Gurobi 12.0.1 (linux64) logging started Sat Feb 22 13:47:43 2025


Gurobi 12.0.1 (linux64) logging started Sat Feb 22 13:47:43 2025


Gurobi 12.0.1 (linux64) logging started Sat Feb 22 13:47:44 2025


Gurobi 12.0.1 (linux64) logging started Sat Feb 22 13:47:45 2025


Gurobi 12.0.1 (linux64) logging started Sat Feb 22 13:47:46 2025


Gurobi 12.0.1 (linux64) logging started Sat Feb 22 13:47:47 2025


Gurobi 12.0.1 (linux64) logging started Sat Feb 22 13:47:47 2025


Gurobi 12.0.1 (linux64) logging started Sat Feb 22 13:47:48 2025


Gurobi 12.0.1 (linux64) logging started Sat Feb 22 13:47:49 2025


Gurobi 12.0.1 (linux64) logging started Sat Feb 22 13:47:50 2025


Gurobi 12.0.1 (linux64) logging started Sat Feb 22 13:47:50 2025


Gurobi 12.0.1 (linux64) logging started Sat Feb 22 13:47:52 2025


Gurobi 12.0.1 (linux64) logging started Sat Feb 22 13:47:53 2025


Gurobi 12.0.1 (linux64) logging started Sat Feb 22 13:47:53 2025


Gurobi 12.0.1 (linux64) logging started Sat Feb 22 13:47:54 2025


Gurobi 12.0.1 (linux64) logging started Sat Feb 22 13:47:55 2025


Gurobi 12.0.1 (linux64) logging started Sat Feb 22 13:47:56 2025


Gurobi 12.0.1 (linux64) logging started Sat Feb 22 13:47:58 2025


Gurobi 12.0.1 (linux64) logging started Sat Feb 22 13:47:58 2025


Gurobi 12.0.1 (linux64) logging started Sat Feb 22 13:47:59 2025


Gurobi 12.0.1 (linux64) logging started Sat Feb 22 13:48:00 2025


Gurobi 12.0.1 (linux64) logging started Sat Feb 22 13:48:01 2025


Gurobi 12.0.1 (linux64) logging started Sat Feb 22 13:48:01 2025


Gurobi 12.0.1 (linux64) logging started Sat Feb 22 13:48:03 2025


Gurobi 12.0.1 (linux64) logging started Sat Feb 22 13:48:04 2025


Gurobi 12.0.1 (linux64) logging started Sat Feb 22 13:48:05 2025


Gurobi 12.0.1 (linux64) logging started Sat Feb 22 13:48:08 2025


Gurobi 12.0.1 (linux64) logging started Sat Feb 22 13:48:08 2025


Gurobi 12.0.1 (linux64) logging started Sat Feb 22 13:48:09 2025


Gurobi 12.0.1 (linux64) logging started Sat Feb 22 13:48:10 2025


Gurobi 12.0.1 (linux64) logging started Sat Feb 22 13:48:11 2025


Gurobi 12.0.1 (linux64) logging started Sat Feb 22 13:48:15 2025


Gurobi 12.0.1 (linux64) logging started Sat Feb 22 13:48:18 2025


Gurobi 12.0.1 (linux64) logging started Sat Feb 22 13:48:19 2025


Gurobi 12.0.1 (linux64) logging started Sat Feb 22 13:48:23 2025


Gurobi 12.0.1 (linux64) logging started Sat Feb 22 13:50:20 2025


Gurobi 12.0.1 (linux64) logging started Sat Feb 22 13:50:21 2025


Gurobi 12.0.1 (linux64) logging started Sat Feb 22 13:50:22 2025


Gurobi 12.0.1 (linux64) logging started Sat Feb 22 13:50:22 2025


Gurobi 12.0.1 (linux64) logging started Sat Feb 22 13:50:23 2025


Gurobi 12.0.1 (linux64) logging started Sat Feb 22 13:50:24 2025


Gurobi 12.0.1 (linux64) logging started Sat Feb 22 13:50:25 2025


Gurobi 12.0.1 (linux64) logging started Sat Feb 22 13:50:25 2025


Gurobi 12.0.1 (linux64) logging started Sat Feb 22 13:50:26 2025


Gurobi 12.0.1 (linux64) logging started Sat Feb 22 13:50:27 2025


Gurobi 12.0.1 (linux64) logging started Sat Feb 22 13:50:28 2025


Gurobi 12.0.1 (linux64) logging started Sat Feb 22 13:50:29 2025


Gurobi 12.0.1 (linux64) logging started Sat Feb 22 13:50:30 2025


Gurobi 12.0.1 (linux64) logging started Sat Feb 22 13:50:54 2025


Gurobi 12.0.1 (linux64) logging started Sat Feb 22 13:51:52 2025


Gurobi 12.0.1 (linux64) logging started Sat Feb 22 13:54:10 2025


Gurobi 12.0.1 (linux64) logging started Sat Feb 22 13:55:41 2025


Gurobi 12.0.1 (linux64) logging started Sat Feb 22 13:56:25 2025


Gurobi 12.0.1 (linux64) logging started Sat Feb 22 13:56:59 2025


Gurobi 12.0.1 (linux64) logging started Sat Feb 22 14:00:48 2025


Gurobi 12.0.1 (linux64) logging started Sat Feb 22 14:01:52 2025


Gurobi 12.0.1 (linux64) logging started Sat Feb 22 14:05:03 2025


Gurobi 12.0.1 (linux64) logging started Sat Feb 22 14:05:05 2025


Gurobi 12.0.1 (linux64) logging started Sat Feb 22 14:05:08 2025


Gurobi 12.0.1 (linux64) logging started Sat Feb 22 14:05:44 2025


Gurobi 12.0.1 (linux64) logging started Sat Feb 22 14:05:47 2025


Gurobi 12.0.1 (linux64) logging started Sat Feb 22 14:06:21 2025


Gurobi 12.0.1 (linux64) logging started Sat Feb 22 14:09:11 2025


Gurobi 12.0.1 (linux64) logging started Sat Feb 22 14:09:35 2025


Gurobi 12.0.1 (linux64) logging started Sat Feb 22 14:09:37 2025


Gurobi 12.0.1 (linux64) logging started Sat Feb 22 14:13:25 2025


Gurobi 12.0.1 (linux64) logging started Sat Feb 22 14:13:34 2025


Gurobi 12.0.1 (linux64) logging started Sat Feb 22 14:28:09 2025


Gurobi 12.0.1 (linux64) logging started Sat Feb 22 14:28:13 2025


Gurobi 12.0.1 (linux64) logging started Sat Feb 22 14:28:15 2025


Gurobi 12.0.1 (linux64) logging started Sat Feb 22 14:28:18 2025


Gurobi 12.0.1 (linux64) logging started Sat Feb 22 14:32:05 2025


Gurobi 12.0.1 (linux64) logging started Sat Feb 22 14:32:23 2025


Gurobi 12.0.1 (linux64) logging started Sat Feb 22 14:33:18 2025


Gurobi 12.0.1 (linux64) logging started Sat Feb 22 14:34:30 2025


Gurobi 12.0.1 (linux64) logging started Sat Feb 22 14:35:10 2025


Gurobi 12.0.1 (linux64) logging started Sat Feb 22 14:38:41 2025


Gurobi 12.0.1 (linux64) logging started Sat Feb 22 14:44:38 2025


Gurobi 12.0.1 (linux64) logging started Sat Feb 22 14:44:39 2025


Gurobi 12.0.1 (linux64) logging started Sat Feb 22 14:44:41 2025


Gurobi 12.0.1 (linux64) logging started Sat Feb 22 14:44:42 2025


Gurobi 12.0.1 (linux64) logging started Sat Feb 22 14:44:50 2025


Gurobi 12.0.1 (linux64) logging started Sat Feb 22 14:44:55 2025


Gurobi 12.0.1 (linux64) logging started Sat Feb 22 14:45:18 2025


Gurobi 12.0.1 (linux64) logging started Sat Feb 22 14:45:23 2025


Gurobi 12.0.1 (linux64) logging started Sat Feb 22 14:45:27 2025


Gurobi 12.0.1 (linux64) logging started Sat Feb 22 14:45:29 2025


Gurobi 12.0.1 (linux64) logging started Sat Feb 22 14:45:32 2025


Gurobi 12.0.1 (linux64) logging started Sat Feb 22 14:45:35 2025


Gurobi 12.0.1 (linux64) logging started Sat Feb 22 14:45:37 2025


Gurobi 12.0.1 (linux64) logging started Sat Feb 22 14:45:40 2025


Gurobi 12.0.1 (linux64) logging started Sat Feb 22 14:45:42 2025


Gurobi 12.0.1 (linux64) logging started Sat Feb 22 14:45:43 2025


Gurobi 12.0.1 (linux64) logging started Sat Feb 22 14:45:44 2025


Gurobi 12.0.1 (linux64) logging started Sat Feb 22 14:45:46 2025


Gurobi 12.0.1 (linux64) logging started Sat Feb 22 14:46:46 2025


Gurobi 12.0.1 (linux64) logging started Sat Feb 22 14:46:49 2025


Gurobi 12.0.1 (linux64) logging started Sat Feb 22 14:46:52 2025


Gurobi 12.0.1 (linux64) logging started Sat Feb 22 14:46:55 2025


Gurobi 12.0.1 (linux64) logging started Sat Feb 22 14:46:59 2025


Gurobi 12.0.1 (linux64) logging started Sat Feb 22 14:47:04 2025


Gurobi 12.0.1 (linux64) logging started Sat Feb 22 14:47:08 2025


Gurobi 12.0.1 (linux64) logging started Sat Feb 22 14:47:10 2025


Gurobi 12.0.1 (linux64) logging started Sat Feb 22 14:47:13 2025


Gurobi 12.0.1 (linux64) logging started Sat Feb 22 14:47:15 2025


Gurobi 12.0.1 (linux64) logging started Sat Feb 22 14:47:18 2025


Gurobi 12.0.1 (linux64) logging started Sat Feb 22 14:47:20 2025


Gurobi 12.0.1 (linux64) logging started Sat Feb 22 14:47:23 2025


Gurobi 12.0.1 (linux64) logging started Sat Feb 22 14:47:26 2025


Gurobi 12.0.1 (linux64) logging started Sat Feb 22 14:47:28 2025


Gurobi 12.0.1 (linux64) logging started Sat Feb 22 14:47:41 2025


Gurobi 12.0.1 (linux64) logging started Sat Feb 22 14:47:51 2025


Gurobi 12.0.1 (linux64) logging started Sat Feb 22 14:47:56 2025


Gurobi 12.0.1 (linux64) logging started Sat Feb 22 14:47:58 2025


Gurobi 12.0.1 (linux64) logging started Sat Feb 22 14:48:02 2025


Gurobi 12.0.1 (linux64) logging started Sat Feb 22 14:48:07 2025


Gurobi 12.0.1 (linux64) logging started Sat Feb 22 14:48:09 2025


Gurobi 12.0.1 (linux64) logging started Sat Feb 22 14:48:14 2025


Gurobi 12.0.1 (linux64) logging started Sat Feb 22 14:48:17 2025


Gurobi 12.0.1 (linux64) logging started Sat Feb 22 14:48:20 2025


Gurobi 12.0.1 (linux64) logging started Sat Feb 22 14:48:22 2025


Gurobi 12.0.1 (linux64) logging started Sat Feb 22 14:48:25 2025


Gurobi 12.0.1 (linux64) logging started Sat Feb 22 14:48:27 2025


Gurobi 12.0.1 (linux64) logging started Sat Feb 22 14:48:30 2025


Gurobi 12.0.1 (linux64) logging started Sat Feb 22 14:48:32 2025


Gurobi 12.0.1 (linux64) logging started Sat Feb 22 14:48:40 2025


Gurobi 12.0.1 (linux64) logging started Sat Feb 22 14:48:43 2025


Gurobi 12.0.1 (linux64) logging started Sat Feb 22 14:48:49 2025


Gurobi 12.0.1 (linux64) logging started Sat Feb 22 14:48:52 2025


Gurobi 12.0.1 (linux64) logging started Sat Feb 22 14:48:57 2025


Gurobi 12.0.1 (linux64) logging started Sat Feb 22 14:49:00 2025


Gurobi 12.0.1 (linux64) logging started Sat Feb 22 14:49:02 2025


Gurobi 12.0.1 (linux64) logging started Sat Feb 22 14:49:05 2025


Gurobi 12.0.1 (linux64) logging started Sat Feb 22 14:49:08 2025


Gurobi 12.0.1 (linux64) logging started Sat Feb 22 14:49:11 2025


Gurobi 12.0.1 (linux64) logging started Sat Feb 22 14:49:13 2025


Gurobi 12.0.1 (linux64) logging started Sat Feb 22 14:49:16 2025


Gurobi 12.0.1 (linux64) logging started Sat Feb 22 14:49:19 2025


Gurobi 12.0.1 (linux64) logging started Sat Feb 22 14:51:34 2025


Gurobi 12.0.1 (linux64) logging started Sat Feb 22 14:51:35 2025


Gurobi 12.0.1 (linux64) logging started Sat Feb 22 14:52:20 2025


Gurobi 12.0.1 (linux64) logging started Sat Feb 22 14:52:21 2025


Gurobi 12.0.1 (linux64) logging started Sat Feb 22 14:53:34 2025


Gurobi 12.0.1 (linux64) logging started Sat Feb 22 14:53:34 2025


Gurobi 12.0.1 (linux64) logging started Sat Feb 22 14:53:49 2025


Gurobi 12.0.1 (linux64) logging started Sat Feb 22 14:53:49 2025


Gurobi 12.0.1 (linux64) logging started Sat Feb 22 14:53:57 2025


Gurobi 12.0.1 (linux64) logging started Sat Feb 22 14:54:03 2025


Gurobi 12.0.1 (linux64) logging started Sat Feb 22 15:01:42 2025


Gurobi 12.0.1 (linux64) logging started Sat Feb 22 15:01:46 2025


Gurobi 12.0.1 (linux64) logging started Sat Feb 22 15:01:51 2025


Gurobi 12.0.1 (linux64) logging started Sat Feb 22 15:01:55 2025


Gurobi 12.0.1 (linux64) logging started Sat Feb 22 15:01:59 2025


Gurobi 12.0.1 (linux64) logging started Sat Feb 22 15:02:01 2025


Gurobi 12.0.1 (linux64) logging started Sat Feb 22 15:02:04 2025


Gurobi 12.0.1 (linux64) logging started Sat Feb 22 15:02:06 2025


Gurobi 12.0.1 (linux64) logging started Sat Feb 22 15:02:12 2025


Gurobi 12.0.1 (linux64) logging started Sat Feb 22 15:02:15 2025


Gurobi 12.0.1 (linux64) logging started Sat Feb 22 15:02:17 2025


Gurobi 12.0.1 (linux64) logging started Sat Feb 22 15:02:20 2025


Gurobi 12.0.1 (linux64) logging started Sat Feb 22 15:02:52 2025


Gurobi 12.0.1 (linux64) logging started Sat Feb 22 15:03:45 2025


Gurobi 12.0.1 (linux64) logging started Sat Feb 22 15:13:38 2025


Gurobi 12.0.1 (linux64) logging started Sat Feb 22 15:20:58 2025


Gurobi 12.0.1 (linux64) logging started Sat Feb 22 15:21:35 2025


Gurobi 12.0.1 (linux64) logging started Sat Feb 22 16:10:30 2025


Gurobi 12.0.1 (linux64) logging started Sat Feb 22 16:11:24 2025


Gurobi 12.0.1 (linux64) logging started Sat Feb 22 16:12:06 2025


Gurobi 12.0.1 (linux64) logging started Sat Feb 22 16:12:48 2025


Gurobi 12.0.1 (linux64) logging started Sat Feb 22 16:15:59 2025


Gurobi 12.0.1 (linux64) logging started Sat Feb 22 17:49:52 2025


Gurobi 12.0.1 (linux64) logging started Sat Feb 22 17:50:32 2025


Gurobi 12.0.1 (linux64) logging started Sat Feb 22 17:51:57 2025


Gurobi 12.0.1 (linux64) logging started Sat Feb 22 17:51:57 2025


Gurobi 12.0.1 (linux64) logging started Sat Feb 22 17:52:15 2025

